p edge 1711 1666
e 1 2
e 1 3
e 1 4
e 1 5
e 1 6
e 1 7
e 1 8
e 1 9
e 1 10
e 1 11
e 1 12
e 1 13
e 1 14
e 1 15
e 1 16
e 1 17
e 1 18
e 1 19
e 1 20
e 1 21
e 1 22
e 1 23
e 1 24
e 1 25
e 1 26
e 1 27
e 1 28
e 1 29
e 1 30
e 1 31
e 1 32
e 1 33
e 34 35
e 34 36
e 34 37
e 34 38
e 34 39
e 34 40
e 34 41
e 34 42
e 34 43
e 34 44
e 34 45
e 34 46
e 34 47
e 34 48
e 34 49
e 34 50
e 34 51
e 34 52
e 34 53
e 34 54
e 34 55
e 34 56
e 34 57
e 34 58
e 34 59
e 34 60
e 34 61
e 34 62
e 34 63
e 34 64
e 34 65
e 34 66
e 67 68
e 67 69
e 67 70
e 67 71
e 67 72
e 67 73
e 67 74
e 67 75
e 67 76
e 67 77
e 67 78
e 67 79
e 67 80
e 67 81
e 67 82
e 67 83
e 67 84
e 67 85
e 67 86
e 67 87
e 67 88
e 67 89
e 67 90
e 67 91
e 67 92
e 67 93
e 67 94
e 67 95
e 67 96
e 67 97
e 67 98
e 67 99
e 67 100
e 67 101
e 67 102
e 67 103
e 67 104
e 67 105
e 67 106
e 67 107
e 67 108
e 67 109
e 67 110
e 67 111
e 67 112
e 67 113
e 67 114
e 67 115
e 67 116
e 67 117
e 67 118
e 67 119
e 67 120
e 67 121
e 67 122
e 123 124
e 123 125
e 123 126
e 123 127
e 123 128
e 123 129
e 123 130
e 123 131
e 123 132
e 123 133
e 123 134
e 123 135
e 123 136
e 123 137
e 123 138
e 123 139
e 123 140
e 123 141
e 123 142
e 123 143
e 123 144
e 123 145
e 123 146
e 123 147
e 123 148
e 123 149
e 123 150
e 123 151
e 123 152
e 123 153
e 123 154
e 123 155
e 123 156
e 123 157
e 123 158
e 123 159
e 123 160
e 123 161
e 123 162
e 123 163
e 123 164
e 123 165
e 123 166
e 123 167
e 123 168
e 123 169
e 123 170
e 123 171
e 123 172
e 123 173
e 174 175
e 174 176
e 174 177
e 174 178
e 174 179
e 174 180
e 174 181
e 174 182
e 174 183
e 174 184
e 174 185
e 174 186
e 174 187
e 174 188
e 174 189
e 174 190
e 174 191
e 174 192
e 174 193
e 174 194
e 174 195
e 174 196
e 174 197
e 174 198
e 174 199
e 174 200
e 174 201
e 174 202
e 174 203
e 174 204
e 205 206
e 205 207
e 205 208
e 205 209
e 205 210
e 205 211
e 205 212
e 205 213
e 205 214
e 205 215
e 205 216
e 205 217
e 205 218
e 205 219
e 205 220
e 205 221
e 205 222
e 205 223
e 205 224
e 205 225
e 205 226
e 205 227
e 205 228
e 205 229
e 205 230
e 205 231
e 232 233
e 232 234
e 232 235
e 232 236
e 232 237
e 232 238
e 232 239
e 232 240
e 232 241
e 232 242
e 232 243
e 232 244
e 232 245
e 232 246
e 232 247
e 232 248
e 232 249
e 232 250
e 232 251
e 232 252
e 232 253
e 232 254
e 232 255
e 232 256
e 232 257
e 258 259
e 258 260
e 258 261
e 258 262
e 258 263
e 258 264
e 258 265
e 258 266
e 258 267
e 258 268
e 258 269
e 258 270
e 258 271
e 258 272
e 258 273
e 258 274
e 258 275
e 258 276
e 258 277
e 258 278
e 258 279
e 258 280
e 258 281
e 258 282
e 258 283
e 258 284
e 258 285
e 258 286
e 258 287
e 258 288
e 289 290
e 289 291
e 289 292
e 289 293
e 289 294
e 289 295
e 289 296
e 289 297
e 289 298
e 289 299
e 289 300
e 289 301
e 289 302
e 289 303
e 289 304
e 289 305
e 289 306
e 289 307
e 289 308
e 289 309
e 289 310
e 289 311
e 289 312
e 289 313
e 289 314
e 289 315
e 289 316
e 289 317
e 289 318
e 289 319
e 289 320
e 289 321
e 289 322
e 289 323
e 289 324
e 289 325
e 289 326
e 289 327
e 289 328
e 289 329
e 289 330
e 289 331
e 289 332
e 289 333
e 289 334
e 289 335
e 289 336
e 289 337
e 289 338
e 289 339
e 289 340
e 289 341
e 289 342
e 289 343
e 289 344
e 289 345
e 289 346
e 289 347
e 289 348
e 349 350
e 349 351
e 349 352
e 349 353
e 349 354
e 349 355
e 349 356
e 349 357
e 349 358
e 349 359
e 349 360
e 349 361
e 349 362
e 363 364
e 363 365
e 363 366
e 363 367
e 363 368
e 363 369
e 363 370
e 363 371
e 363 372
e 363 373
e 363 374
e 363 375
e 363 376
e 363 377
e 363 378
e 363 379
e 363 380
e 363 381
e 363 382
e 363 383
e 363 384
e 363 385
e 363 386
e 363 387
e 363 388
e 363 389
e 363 390
e 363 391
e 363 392
e 393 394
e 393 395
e 393 396
e 393 397
e 393 398
e 393 399
e 393 400
e 393 401
e 393 402
e 393 403
e 393 404
e 405 406
e 405 407
e 405 408
e 405 409
e 405 410
e 405 411
e 405 412
e 405 413
e 405 414
e 405 415
e 405 416
e 405 417
e 405 418
e 405 419
e 405 420
e 405 421
e 405 422
e 405 423
e 405 424
e 405 425
e 405 426
e 405 427
e 405 428
e 405 429
e 405 430
e 405 431
e 405 432
e 405 433
e 405 434
e 405 435
e 405 436
e 405 437
e 405 438
e 405 439
e 405 440
e 405 441
e 405 442
e 405 443
e 405 444
e 405 445
e 405 446
e 405 447
e 405 448
e 405 449
e 405 450
e 405 451
e 405 452
e 405 453
e 405 454
e 405 455
e 405 456
e 405 457
e 458 459
e 458 460
e 458 461
e 458 462
e 458 463
e 458 464
e 458 465
e 458 466
e 458 467
e 458 468
e 458 469
e 458 470
e 458 471
e 458 472
e 473 474
e 473 475
e 473 476
e 473 477
e 473 478
e 473 479
e 473 480
e 473 481
e 473 482
e 473 483
e 473 484
e 473 485
e 473 486
e 473 487
e 473 488
e 473 489
e 473 490
e 473 491
e 473 492
e 473 493
e 473 494
e 473 495
e 473 496
e 473 497
e 473 498
e 473 499
e 473 500
e 473 501
e 473 502
e 473 503
e 473 504
e 473 505
e 473 506
e 473 507
e 473 508
e 473 509
e 473 510
e 473 511
e 473 512
e 473 513
e 473 514
e 473 515
e 473 516
e 473 517
e 473 518
e 473 519
e 473 520
e 473 521
e 473 522
e 473 523
e 473 524
e 473 525
e 473 526
e 473 527
e 473 528
e 473 529
e 473 530
e 531 532
e 531 533
e 531 534
e 531 535
e 531 536
e 531 537
e 531 538
e 531 539
e 531 540
e 531 541
e 531 542
e 531 543
e 531 544
e 531 545
e 531 546
e 531 547
e 531 548
e 531 549
e 531 550
e 531 551
e 531 552
e 531 553
e 531 554
e 531 555
e 531 556
e 531 557
e 531 558
e 531 559
e 531 560
e 531 561
e 531 562
e 563 564
e 563 565
e 563 566
e 563 567
e 563 568
e 563 569
e 563 570
e 563 571
e 563 572
e 563 573
e 563 574
e 563 575
e 563 576
e 563 577
e 563 578
e 563 579
e 563 580
e 563 581
e 563 582
e 563 583
e 563 584
e 563 585
e 563 586
e 563 587
e 563 588
e 563 589
e 563 590
e 563 591
e 563 592
e 563 593
e 563 594
e 563 595
e 563 596
e 563 597
e 563 598
e 563 599
e 563 600
e 563 601
e 563 602
e 563 603
e 563 604
e 563 605
e 563 606
e 563 607
e 608 609
e 608 610
e 608 611
e 608 612
e 608 613
e 608 614
e 608 615
e 608 616
e 608 617
e 608 618
e 608 619
e 608 620
e 608 621
e 608 622
e 608 623
e 608 624
e 608 625
e 608 626
e 608 627
e 608 628
e 608 629
e 608 630
e 608 631
e 608 632
e 608 633
e 608 634
e 608 635
e 608 636
e 608 637
e 608 638
e 608 639
e 608 640
e 608 641
e 608 642
e 608 643
e 608 644
e 608 645
e 608 646
e 608 647
e 608 648
e 608 649
e 608 650
e 608 651
e 608 652
e 608 653
e 608 654
e 608 655
e 608 656
e 657 658
e 657 659
e 657 660
e 657 661
e 657 662
e 657 663
e 657 664
e 657 665
e 657 666
e 657 667
e 657 668
e 657 669
e 657 670
e 657 671
e 657 672
e 657 673
e 657 674
e 657 675
e 657 676
e 657 677
e 657 678
e 657 679
e 657 680
e 657 681
e 657 682
e 657 683
e 657 684
e 657 685
e 657 686
e 657 687
e 657 688
e 657 689
e 657 690
e 657 691
e 657 692
e 657 693
e 657 694
e 695 696
e 695 697
e 695 698
e 695 699
e 695 700
e 695 701
e 695 702
e 695 703
e 695 704
e 695 705
e 695 706
e 695 707
e 695 708
e 695 709
e 695 710
e 695 711
e 695 712
e 695 713
e 695 714
e 695 715
e 695 716
e 695 717
e 695 718
e 695 719
e 695 720
e 695 721
e 695 722
e 695 723
e 695 724
e 695 725
e 695 726
e 695 727
e 695 728
e 695 729
e 695 730
e 695 731
e 695 732
e 695 733
e 695 734
e 695 735
e 736 737
e 736 738
e 736 739
e 736 740
e 736 741
e 736 742
e 736 743
e 736 744
e 736 745
e 736 746
e 736 747
e 736 748
e 736 749
e 736 750
e 736 751
e 736 752
e 736 753
e 736 754
e 736 755
e 736 756
e 736 757
e 736 758
e 736 759
e 736 760
e 736 761
e 736 762
e 736 763
e 736 764
e 736 765
e 736 766
e 736 767
e 736 768
e 736 769
e 736 770
e 736 771
e 736 772
e 736 773
e 736 774
e 736 775
e 736 776
e 736 777
e 736 778
e 736 779
e 736 780
e 736 781
e 736 782
e 736 783
e 736 784
e 736 785
e 736 786
e 736 787
e 736 788
e 736 789
e 736 790
e 736 791
e 792 793
e 792 794
e 792 795
e 792 796
e 792 797
e 792 798
e 792 799
e 792 800
e 792 801
e 792 802
e 792 803
e 792 804
e 792 805
e 792 806
e 792 807
e 792 808
e 792 809
e 792 810
e 792 811
e 792 812
e 792 813
e 814 815
e 814 816
e 814 817
e 814 818
e 814 819
e 814 820
e 814 821
e 814 822
e 814 823
e 814 824
e 814 825
e 814 826
e 814 827
e 814 828
e 814 829
e 814 830
e 814 831
e 814 832
e 814 833
e 814 834
e 814 835
e 814 836
e 814 837
e 814 838
e 814 839
e 814 840
e 814 841
e 814 842
e 814 843
e 814 844
e 814 845
e 814 846
e 847 848
e 847 849
e 847 850
e 847 851
e 847 852
e 847 853
e 847 854
e 847 855
e 847 856
e 847 857
e 847 858
e 847 859
e 847 860
e 847 861
e 847 862
e 847 863
e 847 864
e 847 865
e 847 866
e 847 867
e 847 868
e 847 869
e 847 870
e 847 871
e 847 872
e 847 873
e 847 874
e 847 875
e 847 876
e 847 877
e 847 878
e 847 879
e 847 880
e 847 881
e 847 882
e 847 883
e 847 884
e 847 885
e 847 886
e 847 887
e 847 888
e 847 889
e 847 890
e 847 891
e 847 892
e 847 893
e 847 894
e 847 895
e 847 896
e 847 897
e 847 898
e 847 899
e 847 900
e 847 901
e 847 902
e 847 903
e 847 904
e 847 905
e 906 907
e 906 908
e 906 909
e 906 910
e 906 911
e 906 912
e 906 913
e 906 914
e 906 915
e 906 916
e 906 917
e 906 918
e 906 919
e 906 920
e 906 921
e 906 922
e 906 923
e 906 924
e 925 926
e 925 927
e 925 928
e 925 929
e 925 930
e 925 931
e 925 932
e 925 933
e 925 934
e 925 935
e 925 936
e 925 937
e 925 938
e 925 939
e 925 940
e 925 941
e 925 942
e 925 943
e 925 944
e 925 945
e 925 946
e 925 947
e 925 948
e 925 949
e 925 950
e 925 951
e 925 952
e 925 953
e 925 954
e 925 955
e 925 956
e 925 957
e 925 958
e 925 959
e 925 960
e 925 961
e 925 962
e 925 963
e 925 964
e 925 965
e 925 966
e 925 967
e 925 968
e 969 970
e 969 971
e 969 972
e 969 973
e 969 974
e 969 975
e 969 976
e 969 977
e 969 978
e 969 979
e 969 980
e 969 981
e 969 982
e 969 983
e 969 984
e 969 985
e 969 986
e 969 987
e 969 988
e 969 989
e 969 990
e 969 991
e 969 992
e 969 993
e 969 994
e 969 995
e 969 996
e 969 997
e 969 998
e 969 999
e 969 1000
e 969 1001
e 969 1002
e 969 1003
e 969 1004
e 969 1005
e 969 1006
e 969 1007
e 969 1008
e 969 1009
e 969 1010
e 969 1011
e 969 1012
e 969 1013
e 1014 1015
e 1014 1016
e 1014 1017
e 1014 1018
e 1014 1019
e 1014 1020
e 1014 1021
e 1014 1022
e 1014 1023
e 1014 1024
e 1014 1025
e 1014 1026
e 1014 1027
e 1014 1028
e 1014 1029
e 1014 1030
e 1014 1031
e 1014 1032
e 1014 1033
e 1014 1034
e 1014 1035
e 1014 1036
e 1014 1037
e 1014 1038
e 1014 1039
e 1014 1040
e 1014 1041
e 1014 1042
e 1014 1043
e 1044 1045
e 1044 1046
e 1044 1047
e 1044 1048
e 1044 1049
e 1044 1050
e 1044 1051
e 1044 1052
e 1044 1053
e 1044 1054
e 1044 1055
e 1044 1056
e 1044 1057
e 1044 1058
e 1044 1059
e 1044 1060
e 1044 1061
e 1044 1062
e 1044 1063
e 1044 1064
e 1044 1065
e 1044 1066
e 1044 1067
e 1044 1068
e 1044 1069
e 1044 1070
e 1044 1071
e 1072 1073
e 1072 1074
e 1072 1075
e 1072 1076
e 1072 1077
e 1072 1078
e 1072 1079
e 1072 1080
e 1072 1081
e 1072 1082
e 1072 1083
e 1072 1084
e 1072 1085
e 1072 1086
e 1072 1087
e 1072 1088
e 1072 1089
e 1072 1090
e 1072 1091
e 1072 1092
e 1072 1093
e 1072 1094
e 1072 1095
e 1072 1096
e 1072 1097
e 1072 1098
e 1072 1099
e 1072 1100
e 1072 1101
e 1072 1102
e 1072 1103
e 1072 1104
e 1072 1105
e 1072 1106
e 1072 1107
e 1072 1108
e 1072 1109
e 1072 1110
e 1072 1111
e 1072 1112
e 1072 1113
e 1072 1114
e 1072 1115
e 1072 1116
e 1072 1117
e 1072 1118
e 1072 1119
e 1072 1120
e 1072 1121
e 1122 1123
e 1122 1124
e 1122 1125
e 1122 1126
e 1122 1127
e 1122 1128
e 1122 1129
e 1122 1130
e 1122 1131
e 1122 1132
e 1122 1133
e 1122 1134
e 1122 1135
e 1122 1136
e 1122 1137
e 1122 1138
e 1122 1139
e 1122 1140
e 1122 1141
e 1122 1142
e 1122 1143
e 1122 1144
e 1122 1145
e 1122 1146
e 1122 1147
e 1122 1148
e 1122 1149
e 1122 1150
e 1122 1151
e 1122 1152
e 1122 1153
e 1122 1154
e 1122 1155
e 1122 1156
e 1122 1157
e 1122 1158
e 1122 1159
e 1122 1160
e 1122 1161
e 1122 1162
e 1122 1163
e 1122 1164
e 1122 1165
e 1122 1166
e 1122 1167
e 1122 1168
e 1122 1169
e 1122 1170
e 1171 1172
e 1171 1173
e 1171 1174
e 1171 1175
e 1171 1176
e 1171 1177
e 1171 1178
e 1171 1179
e 1171 1180
e 1171 1181
e 1171 1182
e 1171 1183
e 1171 1184
e 1171 1185
e 1171 1186
e 1171 1187
e 1171 1188
e 1171 1189
e 1171 1190
e 1171 1191
e 1171 1192
e 1171 1193
e 1171 1194
e 1171 1195
e 1171 1196
e 1171 1197
e 1171 1198
e 1171 1199
e 1171 1200
e 1171 1201
e 1171 1202
e 1171 1203
e 1171 1204
e 1171 1205
e 1171 1206
e 1171 1207
e 1171 1208
e 1171 1209
e 1210 1211
e 1210 1212
e 1210 1213
e 1210 1214
e 1210 1215
e 1210 1216
e 1210 1217
e 1210 1218
e 1210 1219
e 1210 1220
e 1210 1221
e 1210 1222
e 1210 1223
e 1210 1224
e 1210 1225
e 1210 1226
e 1210 1227
e 1210 1228
e 1210 1229
e 1210 1230
e 1210 1231
e 1210 1232
e 1210 1233
e 1210 1234
e 1210 1235
e 1210 1236
e 1210 1237
e 1210 1238
e 1210 1239
e 1210 1240
e 1210 1241
e 1210 1242
e 1210 1243
e 1210 1244
e 1210 1245
e 1210 1246
e 1210 1247
e 1210 1248
e 1210 1249
e 1210 1250
e 1210 1251
e 1210 1252
e 1253 1254
e 1253 1255
e 1253 1256
e 1253 1257
e 1253 1258
e 1253 1259
e 1253 1260
e 1253 1261
e 1253 1262
e 1253 1263
e 1253 1264
e 1253 1265
e 1253 1266
e 1253 1267
e 1253 1268
e 1253 1269
e 1253 1270
e 1253 1271
e 1253 1272
e 1253 1273
e 1253 1274
e 1253 1275
e 1253 1276
e 1253 1277
e 1253 1278
e 1279 1280
e 1279 1281
e 1279 1282
e 1279 1283
e 1279 1284
e 1279 1285
e 1279 1286
e 1279 1287
e 1279 1288
e 1279 1289
e 1279 1290
e 1279 1291
e 1279 1292
e 1279 1293
e 1279 1294
e 1279 1295
e 1279 1296
e 1279 1297
e 1279 1298
e 1279 1299
e 1279 1300
e 1279 1301
e 1302 1303
e 1302 1304
e 1302 1305
e 1302 1306
e 1302 1307
e 1302 1308
e 1302 1309
e 1302 1310
e 1302 1311
e 1302 1312
e 1302 1313
e 1302 1314
e 1302 1315
e 1302 1316
e 1302 1317
e 1302 1318
e 1302 1319
e 1302 1320
e 1302 1321
e 1302 1322
e 1302 1323
e 1302 1324
e 1302 1325
e 1302 1326
e 1302 1327
e 1302 1328
e 1302 1329
e 1302 1330
e 1302 1331
e 1302 1332
e 1302 1333
e 1302 1334
e 1302 1335
e 1302 1336
e 1302 1337
e 1302 1338
e 1339 1340
e 1339 1341
e 1339 1342
e 1339 1343
e 1339 1344
e 1339 1345
e 1339 1346
e 1339 1347
e 1339 1348
e 1339 1349
e 1339 1350
e 1339 1351
e 1339 1352
e 1339 1353
e 1339 1354
e 1339 1355
e 1339 1356
e 1339 1357
e 1339 1358
e 1339 1359
e 1339 1360
e 1339 1361
e 1339 1362
e 1339 1363
e 1339 1364
e 1339 1365
e 1339 1366
e 1339 1367
e 1339 1368
e 1339 1369
e 1339 1370
e 1339 1371
e 1339 1372
e 1339 1373
e 1339 1374
e 1339 1375
e 1339 1376
e 1339 1377
e 1339 1378
e 1339 1379
e 1339 1380
e 1339 1381
e 1339 1382
e 1339 1383
e 1339 1384
e 1339 1385
e 1339 1386
e 1339 1387
e 1339 1388
e 1339 1389
e 1339 1390
e 1339 1391
e 1339 1392
e 1339 1393
e 1339 1394
e 1339 1395
e 1339 1396
e 1339 1397
e 1339 1398
e 1399 1400
e 1399 1401
e 1399 1402
e 1399 1403
e 1399 1404
e 1399 1405
e 1399 1406
e 1399 1407
e 1399 1408
e 1399 1409
e 1399 1410
e 1399 1411
e 1399 1412
e 1399 1413
e 1399 1414
e 1399 1415
e 1399 1416
e 1399 1417
e 1399 1418
e 1399 1419
e 1399 1420
e 1399 1421
e 1399 1422
e 1399 1423
e 1399 1424
e 1399 1425
e 1399 1426
e 1399 1427
e 1399 1428
e 1399 1429
e 1399 1430
e 1399 1431
e 1399 1432
e 1399 1433
e 1399 1434
e 1399 1435
e 1399 1436
e 1399 1437
e 1399 1438
e 1399 1439
e 1399 1440
e 1399 1441
e 1399 1442
e 1399 1443
e 1399 1444
e 1399 1445
e 1399 1446
e 1399 1447
e 1399 1448
e 1399 1449
e 1399 1450
e 1451 1452
e 1451 1453
e 1451 1454
e 1451 1455
e 1451 1456
e 1451 1457
e 1451 1458
e 1451 1459
e 1451 1460
e 1451 1461
e 1451 1462
e 1451 1463
e 1451 1464
e 1451 1465
e 1451 1466
e 1451 1467
e 1451 1468
e 1451 1469
e 1451 1470
e 1451 1471
e 1451 1472
e 1451 1473
e 1451 1474
e 1451 1475
e 1451 1476
e 1451 1477
e 1451 1478
e 1451 1479
e 1451 1480
e 1451 1481
e 1451 1482
e 1451 1483
e 1451 1484
e 1451 1485
e 1451 1486
e 1451 1487
e 1451 1488
e 1451 1489
e 1451 1490
e 1451 1491
e 1451 1492
e 1451 1493
e 1451 1494
e 1451 1495
e 1451 1496
e 1451 1497
e 1451 1498
e 1451 1499
e 1451 1500
e 1451 1501
e 1451 1502
e 1451 1503
e 1451 1504
e 1451 1505
e 1506 1507
e 1506 1508
e 1506 1509
e 1506 1510
e 1506 1511
e 1506 1512
e 1506 1513
e 1506 1514
e 1506 1515
e 1506 1516
e 1506 1517
e 1506 1518
e 1506 1519
e 1506 1520
e 1506 1521
e 1506 1522
e 1506 1523
e 1506 1524
e 1506 1525
e 1526 1527
e 1526 1528
e 1526 1529
e 1526 1530
e 1526 1531
e 1526 1532
e 1526 1533
e 1526 1534
e 1526 1535
e 1526 1536
e 1526 1537
e 1526 1538
e 1526 1539
e 1526 1540
e 1541 1542
e 1541 1543
e 1541 1544
e 1541 1545
e 1541 1546
e 1541 1547
e 1541 1548
e 1541 1549
e 1541 1550
e 1541 1551
e 1552 1553
e 1552 1554
e 1552 1555
e 1552 1556
e 1552 1557
e 1552 1558
e 1552 1559
e 1552 1560
e 1552 1561
e 1552 1562
e 1552 1563
e 1552 1564
e 1552 1565
e 1552 1566
e 1552 1567
e 1552 1568
e 1552 1569
e 1552 1570
e 1552 1571
e 1552 1572
e 1552 1573
e 1552 1574
e 1552 1575
e 1552 1576
e 1552 1577
e 1552 1578
e 1552 1579
e 1552 1580
e 1552 1581
e 1552 1582
e 1552 1583
e 1552 1584
e 1552 1585
e 1552 1586
e 1552 1587
e 1552 1588
e 1552 1589
e 1552 1590
e 1552 1591
e 1552 1592
e 1552 1593
e 1594 1595
e 1594 1596
e 1594 1597
e 1594 1598
e 1594 1599
e 1594 1600
e 1594 1601
e 1594 1602
e 1594 1603
e 1594 1604
e 1594 1605
e 1594 1606
e 1594 1607
e 1594 1608
e 1594 1609
e 1594 1610
e 1594 1611
e 1594 1612
e 1594 1613
e 1594 1614
e 1594 1615
e 1594 1616
e 1594 1617
e 1594 1618
e 1594 1619
e 1594 1620
e 1594 1621
e 1594 1622
e 1594 1623
e 1594 1624
e 1594 1625
e 1594 1626
e 1594 1627
e 1594 1628
e 1594 1629
e 1594 1630
e 1594 1631
e 1594 1632
e 1594 1633
e 1594 1634
e 1594 1635
e 1594 1636
e 1594 1637
e 1594 1638
e 1594 1639
e 1594 1640
e 1594 1641
e 1594 1642
e 1594 1643
e 1594 1644
e 1594 1645
e 1594 1646
e 1594 1647
e 1594 1648
e 1594 1649
e 1594 1650
e 1594 1651
e 1594 1652
e 1594 1653
e 1654 1655
e 1654 1656
e 1654 1657
e 1654 1658
e 1654 1659
e 1654 1660
e 1654 1661
e 1654 1662
e 1654 1663
e 1654 1664
e 1654 1665
e 1654 1666
e 1654 1667
e 1654 1668
e 1654 1669
e 1654 1670
e 1654 1671
e 1654 1672
e 1654 1673
e 1654 1674
e 1654 1675
e 1654 1676
e 1654 1677
e 1654 1678
e 1654 1679
e 1654 1680
e 1654 1681
e 1654 1682
e 1654 1683
e 1654 1684
e 1654 1685
e 1654 1686
e 1654 1687
e 1654 1688
e 1654 1689
e 1654 1690
e 1654 1691
e 1654 1692
e 1654 1693
e 1654 1694
e 1654 1695
e 1654 1696
e 1654 1697
e 1654 1698
e 1654 1699
e 1654 1700
e 1654 1701
e 1654 1702
e 1654 1703
e 1654 1704
e 1654 1705
e 1654 1706
e 1654 1707
e 1654 1708
e 1654 1709
e 1654 1710
e 1654 1711
